proyfinal/src/viki/013/experimentInOfficeAgust.take6.output/33d58180-851f-454a-ab7f-5409b65f088d.als.dat
{'cnf.clauses': '118081',
 'cnf.totvars': '69608',
 'conflict literals': '2',
 'conflicts': '3',
 'decisions': '3326',
 'memused.mb': '16.77',
 'outcome': 'UNSAT',
 'propagations': '23942',
 'restarts': '1',
 'solver.msecs': 28,
 'task.msecs': 73}
