proyfinal/src/viki/013/experimentInOfficeAgust.take6.output/33d58180-851f-454a-ab7f-5409b65f088d.als.out
Reading from standard input... Use '--help' for help.
============================[ Problem Statistics ]=============================
|                                                                             |
|  Number of variables:         69608                                         |
|  Number of clauses:          118081                                         |
|  Parse time:                   0.02 s                                       |
|                                                                             |
============================[ Search Statistics ]==============================
| Conflicts |          ORIGINAL         |          LEARNT          | Progress |
|           |    Vars  Clauses Literals |    Limit  Clauses Lit/Cl |          |
===============================================================================
===============================================================================
restarts              : 1
conflicts             : 3              (104 /sec)
decisions             : 3326           (0.00 % random) (114912 /sec)
propagations          : 23942          (827184 /sec)
conflict literals     : 2              (0.00 % deleted)
Memory used           : 16.77 MB
CPU time              : 0.028944 s

UNSATISFIABLE
